p edge 31 49
e 1 2
e 1 3
e 1 13
e 1 17
e 1 29
e 2 3
e 2 13
e 2 17
e 2 29
e 3 13
e 3 29
e 4 13
e 4 19
e 5 6
e 5 7
e 5 13
e 5 22
e 5 30
e 6 7
e 6 13
e 6 22
e 6 30
e 7 13
e 7 30
e 8 13
e 8 24
e 9 10
e 9 11
e 9 13
e 9 27
e 9 31
e 10 11
e 10 13
e 10 27
e 10 31
e 11 13
e 11 31
e 13 14
e 13 15
e 13 17
e 13 19
e 13 20
e 13 22
e 13 24
e 13 25
e 13 27
e 13 29
e 13 30
e 13 31
